1 1 2 0
1 -2 3 0
1 2 -4 0
1 -2 5 0
1 6 -7 0
1 -8 -6 0
1 -5 -9 0
1 -5 10 0
1 5 4 0
1 -5 -11 0
1 -5 -12 0
1 -3 2 0
1 3 -13 0
1 -13 -9 0
1 -13 -11 0
1 13 -14 0
1 -12 15 0
1 10 -16 0
1 -10 4 0
1 17 18 0
1 -17 -4 0
1 -19 -20 0
1 19 21 0
1 19 18 0
1 -19 22 0
1 19 -5 0
1 7 23 0
1 -7 10 0
1 -23 24 0
1 23 -25 0
1 -23 -19 0
1 23 26 0
1 -27 -28 0
1 27 -12 0
1 -27 6 0
1 16 -10 0
1 16 6 0
1 -29 -23 0
1 -29 -20 0
1 29 30 0
1 29 7 0
1 -31 -18 0
1 -31 -28 0
1 24 23 0
1 -32 33 0
1 -18 -19 0
1 22 -34 0
1 22 -31 0
1 -20 -24 0
1 -20 34 0
1 -20 -22 0
1 35 36 0
1 35 37 0
1 -38 39 0
1 40 41 0
1 -42 -41 0
1 36 43 0
1 36 -42 0
1 -36 -14 0
1 39 36 0
1 39 44 0
1 -39 40 0
1 -39 35 0
1 45 -42 0
1 -45 46 0
1 46 40 0
1 -15 41 0
1 15 -47 0
1 -15 12 0
1 -43 -10 0
1 43 -3 0
1 -14 48 0
1 -14 -49 0
1 14 -50 0
1 21 -14 0
1 -41 -21 0
1 -41 51 0
1 41 11 0
1 -41 -14 0
1 -47 9 0
1 -47 -52 0
1 -47 -53 0
1 54 -21 0
1 54 -14 0
1 48 21 0
1 -48 42 0
1 48 -55 0
1 -11 16 0
1 11 56 0
1 -11 -4 0
1 11 30 0
1 11 47 0
1 9 -4 0
1 -9 -11 0
1 9 5 0
1 28 -47 0
1 57 -58 0
1 57 56 0
1 57 -47 0
1 57 59 0
1 56 60 0
1 56 61 0
1 56 -14 0
1 56 26 0
1 -50 62 0
1 -50 63 0
1 -58 60 0
1 58 -11 0
1 -64 -57 0
1 -64 -52 0
1 -64 11 0
1 34 -65 0
1 -34 23 0
1 34 20 0
1 -34 -59 0
1 -26 -16 0
1 -26 -23 0
1 -26 -20 0
1 -26 -56 0
1 -66 -25 0
1 66 -67 0
1 66 -68 0
1 63 -20 0
1 63 -69 0
1 67 57 0
1 67 -34 0
1 67 -70 0
1 -67 71 0
1 67 33 0
1 -67 -26 0
1 65 -72 0
1 65 66 0
1 -69 -70 0
1 69 73 0
1 -69 63 0
1 69 26 0
1 33 -74 0
1 -33 32 0
1 -75 -65 0
1 -75 71 0
1 -75 76 0
1 75 -67 0
1 -75 74 0
1 -75 -77 0
1 -71 -74 0
1 -74 25 0
1 74 78 0
1 -74 -75 0
1 -74 66 0
1 74 7 0
1 -74 -79 0
1 25 33 0
1 -68 -80 0
1 -68 -81 0
1 68 -82 0
1 -68 63 0
1 -83 -84 0
1 83 80 0
1 -83 -75 0
1 83 -85 0
1 -83 -68 0
1 -86 -76 0
1 86 87 0
1 88 25 0
1 88 77 0
1 89 -88 0
1 -77 -90 0
1 77 -89 0
1 -77 71 0
1 -76 -71 0
1 -76 -77 0
1 87 -88 0
1 91 -88 0
1 -91 -75 0
1 -91 92 0
1 91 81 0
1 -91 -89 0
1 -91 -71 0
1 93 94 0
1 -93 95 0
1 -96 94 0
1 -96 -97 0
1 96 -40 0
1 98 99 0
1 -98 100 0
1 101 -94 0
1 95 99 0
1 -102 103 0
1 -102 100 0
1 -103 -45 0
1 103 104 0
1 49 -105 0
1 105 -104 0
1 105 -106 0
1 -97 107 0
1 -97 -105 0
1 -97 55 0
1 104 108 0
1 -104 96 0
1 -100 -108 0
1 100 -105 0
1 -109 -45 0
1 109 -110 0
1 107 46 0
1 107 -48 0
1 -107 109 0
1 -55 -111 0
1 -55 -54 0
1 -55 110 0
1 -55 106 0
1 112 110 0
1 -111 105 0
1 -111 113 0
1 -111 55 0
1 -111 -114 0
1 110 115 0
1 110 111 0
1 -110 107 0
1 -110 -105 0
1 110 -116 0
1 110 -55 0
1 106 117 0
1 106 118 0
1 119 108 0
1 -119 112 0
1 119 120 0
1 -119 -117 0
1 52 -117 0
1 52 48 0
1 115 -58 0
1 -115 110 0
1 115 -121 0
1 -115 -48 0
1 -113 120 0
1 -114 -122 0
1 -114 -123 0
1 114 -113 0
1 -114 124 0
1 114 64 0
1 114 125 0
1 126 127 0
1 126 -60 0
1 126 55 0
1 -126 -73 0
1 44 60 0
1 -44 52 0
1 44 128 0
1 -44 -73 0
1 44 129 0
1 122 -115 0
1 -122 -52 0
1 -121 122 0
1 -121 -116 0
1 121 -130 0
1 -121 131 0
1 -121 -118 0
1 60 -69 0
1 60 -124 0
1 129 -50 0
1 -129 60 0
1 -129 44 0
1 -132 -73 0
1 132 62 0
1 73 123 0
1 73 133 0
1 73 -134 0
1 51 -53 0
1 51 80 0
1 -51 -135 0
1 -51 -113 0
1 -51 -70 0
1 -51 -114 0
1 -53 -135 0
1 -53 51 0
1 53 136 0
1 53 -114 0
1 123 54 0
1 123 -132 0
1 -123 -73 0
1 -124 -137 0
1 -124 114 0
1 135 83 0
1 135 -68 0
1 70 -83 0
1 70 61 0
1 -70 86 0
1 70 59 0
1 80 88 0
1 -80 68 0
1 -136 -138 0
1 -136 53 0
1 -136 134 0
1 -61 139 0
1 -61 -140 0
1 61 73 0
1 62 -132 0
1 62 136 0
1 -62 -73 0
1 -133 -141 0
1 -133 58 0
1 -133 -142 0
1 133 -70 0
1 134 136 0
1 134 -73 0
1 84 83 0
1 84 62 0
1 -84 143 0
1 81 72 0
1 81 138 0
1 -81 -68 0
1 81 74 0
1 -81 87 0
1 -140 -91 0
1 -140 -143 0
1 -92 -138 0
1 -92 -82 0
1 92 -143 0
1 138 -136 0
1 138 144 0
1 -72 145 0
1 72 146 0
1 143 140 0
1 -143 -147 0
1 143 148 0
1 145 -72 0
1 -90 -149 0
1 -90 76 0
1 90 82 0
1 146 -149 0
1 146 82 0
1 -146 150 0
1 -151 -72 0
1 -151 152 0
1 -151 150 0
1 -79 -145 0
1 79 -146 0
1 -149 -153 0
1 82 154 0
1 -82 90 0
1 -82 155 0
1 -156 154 0
1 -156 -82 0
1 -156 144 0
1 -153 157 0
1 153 -158 0
1 -159 -157 0
1 -152 -76 0
1 152 -146 0
1 -158 160 0
1 -157 161 0
1 157 -160 0
1 -157 151 0
1 157 -159 0
1 117 -119 0
1 -108 -106 0
1 120 -162 0
1 -120 163 0
1 -120 164 0
1 -125 -162 0
1 125 120 0
1 -125 -164 0
1 -125 106 0
1 -164 165 0
1 166 108 0
1 -166 167 0
1 166 120 0
1 -166 131 0
1 168 120 0
1 -168 169 0
1 -162 -108 0
1 -116 -111 0
1 116 60 0
1 118 -111 0
1 118 -122 0
1 -170 -171 0
1 -170 172 0
1 -131 166 0
1 -131 -173 0
1 131 -174 0
1 174 175 0
1 174 131 0
1 174 -118 0
1 174 -176 0
1 177 -97 0
1 177 175 0
1 -173 120 0
1 -173 -118 0
1 173 -125 0
1 -163 100 0
1 -163 170 0
1 -163 173 0
1 178 123 0
1 178 130 0
1 -130 126 0
1 179 -180 0
1 179 -181 0
1 -179 -182 0
1 -175 180 0
1 175 177 0
1 175 174 0
1 180 -183 0
1 -172 141 0
1 172 142 0
1 -172 184 0
1 172 175 0
1 -172 -130 0
1 182 185 0
1 -182 186 0
1 -182 187 0
1 182 -188 0
1 -182 131 0
1 182 106 0
1 -171 -170 0
1 171 -189 0
1 171 -188 0
1 -141 190 0
1 -141 -133 0
1 141 181 0
1 -141 -124 0
1 -184 -133 0
1 184 181 0
1 -183 -133 0
1 183 -137 0
1 183 -134 0
1 -142 -183 0
1 -142 191 0
1 142 181 0
1 -127 139 0
1 127 183 0
1 127 -192 0
1 -127 148 0
1 128 -184 0
1 190 -175 0
1 181 -183 0
1 -181 190 0
1 181 187 0
1 139 -193 0
1 -147 194 0
1 -147 187 0
1 -147 -62 0
1 148 -127 0
1 148 -128 0
1 -148 195 0
1 -192 -191 0
1 192 194 0
1 192 -196 0
1 -192 -197 0
1 194 147 0
1 -194 155 0
1 198 -154 0
1 -198 199 0
1 -198 147 0
1 -198 155 0
1 -198 -148 0
1 -137 139 0
1 144 -200 0
1 144 -198 0
1 144 201 0
1 144 195 0
1 144 143 0
1 199 160 0
1 -199 -196 0
1 -199 -144 0
1 -155 -156 0
1 155 82 0
1 -155 -198 0
1 -155 -159 0
1 -154 156 0
1 -154 -82 0
1 200 61 0
1 -195 155 0
1 -195 144 0
1 196 -201 0
1 201 -155 0
1 -202 -203 0
1 202 167 0
1 202 204 0
1 -202 169 0
1 202 -173 0
1 -202 174 0
1 204 -184 0
1 186 -205 0
1 -188 203 0
1 -188 167 0
1 188 206 0
1 -165 202 0
1 -167 -207 0
1 167 -208 0
1 167 -187 0
1 -167 188 0
1 169 186 0
1 193 190 0
1 193 167 0
1 -193 165 0
1 -187 193 0
1 -187 -181 0
1 207 -185 0
1 207 -206 0
1 207 176 0
1 -208 -209 0
1 -208 205 0
1 208 181 0
1 -176 193 0
1 206 207 0
1 -206 193 0
1 206 -177 0
1 206 -208 0
1 -206 188 0
1 210 193 0
1 210 205 0
1 -210 208 0
1 205 -186 0
1 205 -208 0
1 -205 -210 0
1 -211 -185 0
1 -211 -190 0
1 211 -176 0
1 212 185 0
1 212 213 0
1 -212 -137 0
1 -212 155 0
1 -212 -176 0
1 213 209 0
1 213 -154 0
1 213 189 0
1 213 176 0
1 -209 -180 0
1 209 214 0
1 214 212 0
